NAME          ClpDefau
ROWS
 N  OBJROW
 L  R_188_0
 L  R_188_1
 L  R_188_2
 L  R_188_3
 L  R_188_4
 L  R_188_5
 L  R_188_6
 L  R_188_7
 L  R_188_8
 L  R_188_9
 L  R_188_10
 L  R_188_11
 L  R_188_12
 L  R_188_13
 L  R_188_14
 L  R_188_15
COLUMNS
    x_0       OBJROW     -1.           R_188_1   6.          
    x_0       R_188_2   9.             R_188_6   8.          
    x_0       R_188_15  7.          
    x_1       OBJROW     -2.        
    x_2       OBJROW     -2.           R_188_2   10.         
    x_3       OBJROW     -6.           R_188_1   6.          
    x_3       R_188_4   2.             R_188_5   1.          
    x_3       R_188_9   9.             R_188_10  5.          
    x_4       OBJROW     -3.           R_188_0   6.          
    x_4       R_188_3   2.             R_188_5   1.          
    x_4       R_188_7   3.             R_188_10  10.         
    x_4       R_188_11  4.             R_188_12  1.          
    x_4       R_188_13  10.         
    x_5       OBJROW     -5.           R_188_5   5.          
    x_5       R_188_13  8.          
    x_6       OBJROW     -5.           R_188_13  3.          
    x_6       R_188_14  4.          
    x_7       OBJROW     -10.          R_188_13  1.          
    x_7       R_188_15  9.          
    x_8       OBJROW     -4.           R_188_2   3.          
    x_8       R_188_4   1.          
    x_9       OBJROW     -10.          R_188_0   7.          
    x_9       R_188_6   2.             R_188_11  7.          
    x_9       R_188_12  5.             R_188_13  1.          
    x_9       R_188_15  8.          
    x_10      OBJROW     -1.           R_188_3   1.          
    x_10      R_188_6   8.             R_188_7   10.         
    x_10      R_188_10  6.             R_188_12  2.          
    x_10      R_188_13  10.         
    x_11      OBJROW     -10.          R_188_2   8.          
    x_12      OBJROW     -3.           R_188_9   6.          
    x_12      R_188_10  9.             R_188_11  7.          
    x_13      OBJROW     -7.           R_188_1   5.          
    x_13      R_188_6   5.             R_188_7   9.          
    x_13      R_188_14  3.          
    x_14      OBJROW     -7.           R_188_5   8.          
    x_14      R_188_11  5.          
    x_15      OBJROW     -9.           R_188_13  8.          
    x_16      OBJROW     -6.           R_188_1   2.          
    x_16      R_188_2   4.             R_188_7   9.          
    x_16      R_188_9   10.            R_188_13  7.          
    x_17      OBJROW     -9.           R_188_0   4.          
    x_17      R_188_7   10.            R_188_13  2.          
    x_18      OBJROW     -8.           R_188_7   8.          
    x_18      R_188_11  9.             R_188_13  1.          
    x_19      OBJROW     -9.           R_188_7   6.          
    x_19      R_188_14  4.          
    x_20      OBJROW     -5.           R_188_10  7.          
    x_21      OBJROW     -1.           R_188_3   8.          
    x_21      R_188_7   4.             R_188_11  3.          
    x_22      OBJROW     -1.        
    x_23      OBJROW     -6.           R_188_3   6.          
    x_23      R_188_5   3.             R_188_9   3.          
    x_24      OBJROW     -8.           R_188_5   6.          
    x_24      R_188_11  6.          
    x_25      OBJROW     -6.           R_188_4   3.          
    x_25      R_188_5   2.             R_188_8   9.          
    x_25      R_188_10  10.            R_188_13  8.          
    x_26      OBJROW     -7.           R_188_2   9.          
    x_26      R_188_10  2.             R_188_13  9.          
    x_26      R_188_15  5.          
    x_27      OBJROW     -7.           R_188_5   7.          
    x_27      R_188_7   8.             R_188_8   8.          
    x_27      R_188_12  9.             R_188_14  9.          
    x_28      OBJROW     -9.           R_188_4   8.          
    x_28      R_188_5   9.             R_188_6   2.          
    x_29      OBJROW     -3.           R_188_4   4.          
    x_29      R_188_5   4.          
    x_30      OBJROW     -9.           R_188_5   9.          
    x_30      R_188_9   3.             R_188_14  4.          
    x_31      OBJROW     -3.           R_188_1   4.          
    x_31      R_188_3   9.             R_188_6   8.          
    x_31      R_188_9   6.          
RHS
    RHS       R_188_0   32.            R_188_1   39.         
    RHS       R_188_2   36.            R_188_3   42.         
    RHS       R_188_4   33.            R_188_5   42.         
    RHS       R_188_6   36.            R_188_7   32.         
    RHS       R_188_8   35.            R_188_9   38.         
    RHS       R_188_10  37.            R_188_11  36.         
    RHS       R_188_12  40.            R_188_13  38.         
    RHS       R_188_14  41.            R_188_15  40.         
BOUNDS
 UI BOUND     x_0       10.         
 UI BOUND     x_1       10.         
 UI BOUND     x_2       10.         
 UI BOUND     x_3       10.         
 UI BOUND     x_4       10.         
 UI BOUND     x_5       10.         
 UI BOUND     x_6       10.         
 UI BOUND     x_7       10.         
 UI BOUND     x_8       10.         
 UI BOUND     x_9       10.         
 UI BOUND     x_10      10.         
 UI BOUND     x_11      10.         
 UI BOUND     x_12      10.         
 UI BOUND     x_13      10.         
 UI BOUND     x_14      10.         
 UI BOUND     x_15      10.         
 UI BOUND     x_16      10.         
 UI BOUND     x_17      10.         
 UI BOUND     x_18      10.         
 UI BOUND     x_19      10.         
 UI BOUND     x_20      10.         
 UI BOUND     x_21      10.         
 UI BOUND     x_22      10.         
 UI BOUND     x_23      10.         
 UI BOUND     x_24      10.         
 UI BOUND     x_25      10.         
 UI BOUND     x_26      10.         
 UI BOUND     x_27      10.         
 UI BOUND     x_28      10.         
 UI BOUND     x_29      10.         
 UI BOUND     x_30      10.         
 UI BOUND     x_31      10.         
ENDATA
